21
14
11 18 17 6 13 16 0 15 19 5 1
20 1 12 18 6 13 9 7 15 14 0 10 11 16 5 3
16 0 15 20 13 1 8 12 17 9 3 10
17 15 3 0 14 1 16
9 13 11 8 4 14 6 18 16 7 3 2 17
12 11 1 18 0
15 5 0 4 6 12 2 8 14 20 11 1 18 16
0 7 18
18 6 14 2 12 19 7 17 5 10 15 0 3 4
3 1 7 8
8 7 19 3 6 16 17 2 10 12 5
14 3 20 13 15 1 9 2 8 16 6 18 19
3 8 16 7 18 14 6 4 9
12 4 10 7 13 17 18 0 2 9 19 20 3 16 5 11 8
